job_count = 24 ;
duration = [|9, 20, 18, 4|39, 24, 2, 7|17, 5, 19, 2|33, 13, 17, 2|26, 10, 9, 6|21, 24, 8, 1|21, 6, 6, 4|26, 7, 11, 3|24, 7, 3, 3|33, 13, 12, 4|21, 24, 4, 7|4, 14, 5, 5|39, 11, 18, 5|39, 28, 7, 6|32, 23, 3, 1|23, 14, 3, 2|6, 28, 4, 3|31, 19, 19, 8|4, 28, 14, 7|18, 19, 14, 9|34, 18, 19, 3|8, 24, 12, 5|19, 17, 18, 9|17, 16, 15, 1|] ;
machine_count = 4 ;
cost = [|13, 30, 42, 55|12, 22, 31, 49|13, 30, 41, 46|18, 36, 56, 59|18, 34, 45, 43|12, 22, 58, 74|15, 28, 42, 54|14, 30, 53, 44|18, 39, 41, 55|12, 35, 41, 76|17, 37, 40, 68|14, 22, 34, 45|13, 26, 58, 70|16, 20, 42, 61|19, 39, 37, 73|11, 29, 47, 44|11, 33, 49, 54|12, 39, 41, 68|10, 23, 56, 59|18, 29, 50, 58|18, 20, 48, 59|13, 25, 45, 67|10, 39, 59, 58|13, 39, 30, 61|] ;
deadline = [50, 50, 50, 50, 50, 50, 50, 50, 50, 50, 50, 50, 50, 50, 50, 50, 50, 50, 50, 50, 50, 50, 50, 50] ;
release = [0, 0, 0, 0, 0, 0, 0, 0, 0, 0, 0, 0, 0, 0, 0, 0, 0, 0, 0, 0, 0, 0, 0, 0] ;
resource = [|4, 4, 4, 4|6, 6, 6, 6|2, 2, 2, 2|2, 2, 2, 2|9, 9, 9, 9|8, 8, 8, 8|6, 6, 6, 6|3, 3, 3, 3|8, 8, 8, 8|2, 2, 2, 2|9, 9, 9, 9|1, 1, 1, 1|4, 4, 4, 4|8, 8, 8, 8|6, 6, 6, 6|7, 7, 7, 7|6, 6, 6, 6|4, 4, 4, 4|6, 6, 6, 6|7, 7, 7, 7|1, 1, 1, 1|7, 7, 7, 7|6, 6, 6, 6|7, 7, 7, 7|] ;
capacities = [10, 10, 10, 10] ;
